p cnf 144 894
1 0
-2 0
-3 0
-4 0
25 5 0
-25 -5 0
-5 -6 0
-5 -7 0
-5 -8 0
-6 -7 0
-6 -8 0
-7 -8 0
-5 29 1 0
-5 29 9 0
-5 1 9 0
-6 30 2 0
-6 30 10 0
-6 2 10 0
-7 31 3 0
-7 31 11 0
-7 3 11 0
-8 32 4 0
-8 32 12 0
-8 4 12 0
-5 -29 -1 -9 0
-6 -30 -2 -10 0
-7 -31 -3 -11 0
-8 -32 -4 -12 0
-9 -10 0
-9 -11 0
-9 -12 0
-10 -11 0
-10 -12 0
-11 -12 0
-9 33 5 0
-9 33 13 0
-9 5 13 0
-10 34 6 0
-10 34 14 0
-10 6 14 0
-11 35 7 0
-11 35 15 0
-11 7 15 0
-12 36 8 0
-12 36 16 0
-12 8 16 0
-9 -33 -5 -13 0
-10 -34 -6 -14 0
-11 -35 -7 -15 0
-12 -36 -8 -16 0
-13 -14 0
-13 -15 0
-13 -16 0
-14 -15 0
-14 -16 0
-15 -16 0
-13 37 9 0
-13 37 17 0
-13 9 17 0
-14 38 10 0
-14 38 18 0
-14 10 18 0
-15 39 11 0
-15 39 19 0
-15 11 19 0
-16 40 12 0
-16 40 20 0
-16 12 20 0
-13 -37 -9 -17 0
-14 -38 -10 -18 0
-15 -39 -11 -19 0
-16 -40 -12 -20 0
-17 -18 0
-17 -19 0
-17 -20 0
-18 -19 0
-18 -20 0
-19 -20 0
-17 41 13 0
-17 41 21 0
-17 13 21 0
-18 42 14 0
-18 42 22 0
-18 14 22 0
-19 43 15 0
-19 43 23 0
-19 15 23 0
-20 44 16 0
-20 44 24 0
-20 16 24 0
-17 -41 -13 -21 0
-18 -42 -14 -22 0
-19 -43 -15 -23 0
-20 -44 -16 -24 0
-21 -22 0
-21 -23 0
-21 -24 0
-22 -23 0
-22 -24 0
-23 -24 0
-21 45 0
-21 17 0
-22 46 0
-22 18 0
-23 47 0
-23 19 0
-24 48 0
-24 20 0
-25 -26 0
-25 -27 0
-25 -28 0
-26 -27 0
-26 -28 0
-27 -28 0
-25 49 1 0
-25 49 29 0
-25 1 29 0
-26 50 2 0
-26 50 30 0
-26 2 30 0
-27 51 3 0
-27 51 31 0
-27 3 31 0
-28 52 4 0
-28 52 32 0
-28 4 32 0
-25 -49 -1 -29 0
-26 -50 -2 -30 0
-27 -51 -3 -31 0
-28 -52 -4 -32 0
-29 -30 0
-29 -31 0
-29 -32 0
-30 -31 0
-30 -32 0
-31 -32 0
-29 53 5 33 0
-29 53 5 25 0
-29 53 33 25 0
-29 5 33 25 0
-30 54 6 34 0
-30 54 6 26 0
-30 54 34 26 0
-30 6 34 26 0
-31 55 7 35 0
-31 55 7 27 0
-31 55 35 27 0
-31 7 35 27 0
-32 56 8 36 0
-32 56 8 28 0
-32 56 36 28 0
-32 8 36 28 0
-29 -53 -5 -33 0
-29 -53 -5 -25 0
-29 -53 -33 -25 0
-29 -5 -33 -25 0
-30 -54 -6 -34 0
-30 -54 -6 -26 0
-30 -54 -34 -26 0
-30 -6 -34 -26 0
-31 -55 -7 -35 0
-31 -55 -7 -27 0
-31 -55 -35 -27 0
-31 -7 -35 -27 0
-32 -56 -8 -36 0
-32 -56 -8 -28 0
-32 -56 -36 -28 0
-32 -8 -36 -28 0
36 0
-33 0
-34 0
-35 0
60 12 40 32 0
-60 -12 0
-60 -40 0
-60 -32 0
-12 -40 0
-12 -32 0
-40 -32 0
-37 -38 0
-37 -39 0
-37 -40 0
-38 -39 0
-38 -40 0
-39 -40 0
-37 61 13 41 0
-37 61 13 33 0
-37 61 41 33 0
-37 13 41 33 0
-38 62 14 42 0
-38 62 14 34 0
-38 62 42 34 0
-38 14 42 34 0
-39 63 15 43 0
-39 63 15 35 0
-39 63 43 35 0
-39 15 43 35 0
-40 64 16 44 0
-40 64 16 36 0
-40 64 44 36 0
-40 16 44 36 0
-37 -61 -13 -41 0
-37 -61 -13 -33 0
-37 -61 -41 -33 0
-37 -13 -41 -33 0
-38 -62 -14 -42 0
-38 -62 -14 -34 0
-38 -62 -42 -34 0
-38 -14 -42 -34 0
-39 -63 -15 -43 0
-39 -63 -15 -35 0
-39 -63 -43 -35 0
-39 -15 -43 -35 0
-40 -64 -16 -44 0
-40 -64 -16 -36 0
-40 -64 -44 -36 0
-40 -16 -44 -36 0
-41 -42 0
-41 -43 0
-41 -44 0
-42 -43 0
-42 -44 0
-43 -44 0
-41 65 17 45 0
-41 65 17 37 0
-41 65 45 37 0
-41 17 45 37 0
-42 66 18 46 0
-42 66 18 38 0
-42 66 46 38 0
-42 18 46 38 0
-43 67 19 47 0
-43 67 19 39 0
-43 67 47 39 0
-43 19 47 39 0
-44 68 20 48 0
-44 68 20 40 0
-44 68 48 40 0
-44 20 48 40 0
-41 -65 -17 -45 0
-41 -65 -17 -37 0
-41 -65 -45 -37 0
-41 -17 -45 -37 0
-42 -66 -18 -46 0
-42 -66 -18 -38 0
-42 -66 -46 -38 0
-42 -18 -46 -38 0
-43 -67 -19 -47 0
-43 -67 -19 -39 0
-43 -67 -47 -39 0
-43 -19 -47 -39 0
-44 -68 -20 -48 0
-44 -68 -20 -40 0
-44 -68 -48 -40 0
-44 -20 -48 -40 0
-45 -46 0
-45 -47 0
-45 -48 0
-46 -47 0
-46 -48 0
-47 -48 0
-45 69 21 0
-45 69 41 0
-45 21 41 0
-46 70 22 0
-46 70 42 0
-46 22 42 0
-47 71 23 0
-47 71 43 0
-47 23 43 0
-48 72 24 0
-48 72 44 0
-48 24 44 0
-45 -69 -21 -41 0
-46 -70 -22 -42 0
-47 -71 -23 -43 0
-48 -72 -24 -44 0
-49 -50 0
-49 -51 0
-49 -52 0
-50 -51 0
-50 -52 0
-51 -52 0
-49 73 25 0
-49 73 53 0
-49 25 53 0
-50 74 26 0
-50 74 54 0
-50 26 54 0
-51 75 27 0
-51 75 55 0
-51 27 55 0
-52 76 28 0
-52 76 56 0
-52 28 56 0
-49 -73 -25 -53 0
-50 -74 -26 -54 0
-51 -75 -27 -55 0
-52 -76 -28 -56 0
-53 -54 0
-53 -55 0
-53 -56 0
-54 -55 0
-54 -56 0
-55 -56 0
-53 77 29 57 0
-53 77 29 49 0
-53 77 57 49 0
-53 29 57 49 0
-54 78 30 58 0
-54 78 30 50 0
-54 78 58 50 0
-54 30 58 50 0
-55 79 31 59 0
-55 79 31 51 0
-55 79 59 51 0
-55 31 59 51 0
-56 80 32 60 0
-56 80 32 52 0
-56 80 60 52 0
-56 32 60 52 0
-53 -77 -29 -57 0
-53 -77 -29 -49 0
-53 -77 -57 -49 0
-53 -29 -57 -49 0
-54 -78 -30 -58 0
-54 -78 -30 -50 0
-54 -78 -58 -50 0
-54 -30 -58 -50 0
-55 -79 -31 -59 0
-55 -79 -31 -51 0
-55 -79 -59 -51 0
-55 -31 -59 -51 0
-56 -80 -32 -60 0
-56 -80 -32 -52 0
-56 -80 -60 -52 0
-56 -32 -60 -52 0
-57 -58 0
-57 -59 0
-57 -60 0
-58 -59 0
-58 -60 0
-59 -60 0
-57 81 33 61 0
-57 81 33 53 0
-57 81 61 53 0
-57 33 61 53 0
-58 82 34 62 0
-58 82 34 54 0
-58 82 62 54 0
-58 34 62 54 0
-59 83 35 63 0
-59 83 35 55 0
-59 83 63 55 0
-59 35 63 55 0
-60 84 36 64 0
-60 84 36 56 0
-60 84 64 56 0
-60 36 64 56 0
-57 -81 -33 -61 0
-57 -81 -33 -53 0
-57 -81 -61 -53 0
-57 -33 -61 -53 0
-58 -82 -34 -62 0
-58 -82 -34 -54 0
-58 -82 -62 -54 0
-58 -34 -62 -54 0
-59 -83 -35 -63 0
-59 -83 -35 -55 0
-59 -83 -63 -55 0
-59 -35 -63 -55 0
-60 -84 -36 -64 0
-60 -84 -36 -56 0
-60 -84 -64 -56 0
-60 -36 -64 -56 0
-61 -62 0
-61 -63 0
-61 -64 0
-62 -63 0
-62 -64 0
-63 -64 0
-61 85 37 65 0
-61 85 37 57 0
-61 85 65 57 0
-61 37 65 57 0
-62 86 38 66 0
-62 86 38 58 0
-62 86 66 58 0
-62 38 66 58 0
-63 87 39 67 0
-63 87 39 59 0
-63 87 67 59 0
-63 39 67 59 0
-64 88 40 68 0
-64 88 40 60 0
-64 88 68 60 0
-64 40 68 60 0
-61 -85 -37 -65 0
-61 -85 -37 -57 0
-61 -85 -65 -57 0
-61 -37 -65 -57 0
-62 -86 -38 -66 0
-62 -86 -38 -58 0
-62 -86 -66 -58 0
-62 -38 -66 -58 0
-63 -87 -39 -67 0
-63 -87 -39 -59 0
-63 -87 -67 -59 0
-63 -39 -67 -59 0
-64 -88 -40 -68 0
-64 -88 -40 -60 0
-64 -88 -68 -60 0
-64 -40 -68 -60 0
-65 -66 0
-65 -67 0
-65 -68 0
-66 -67 0
-66 -68 0
-67 -68 0
-65 89 41 69 0
-65 89 41 61 0
-65 89 69 61 0
-65 41 69 61 0
-66 90 42 70 0
-66 90 42 62 0
-66 90 70 62 0
-66 42 70 62 0
-67 91 43 71 0
-67 91 43 63 0
-67 91 71 63 0
-67 43 71 63 0
-68 92 44 72 0
-68 92 44 64 0
-68 92 72 64 0
-68 44 72 64 0
-65 -89 -41 -69 0
-65 -89 -41 -61 0
-65 -89 -69 -61 0
-65 -41 -69 -61 0
-66 -90 -42 -70 0
-66 -90 -42 -62 0
-66 -90 -70 -62 0
-66 -42 -70 -62 0
-67 -91 -43 -71 0
-67 -91 -43 -63 0
-67 -91 -71 -63 0
-67 -43 -71 -63 0
-68 -92 -44 -72 0
-68 -92 -44 -64 0
-68 -92 -72 -64 0
-68 -44 -72 -64 0
-69 -70 0
-69 -71 0
-69 -72 0
-70 -71 0
-70 -72 0
-71 -72 0
-69 93 45 0
-69 93 65 0
-69 45 65 0
-70 94 46 0
-70 94 66 0
-70 46 66 0
-71 95 47 0
-71 95 67 0
-71 47 67 0
-72 96 48 0
-72 96 68 0
-72 48 68 0
-69 -93 -45 -65 0
-70 -94 -46 -66 0
-71 -95 -47 -67 0
-72 -96 -48 -68 0
-73 -74 0
-73 -75 0
-73 -76 0
-74 -75 0
-74 -76 0
-75 -76 0
-73 97 49 0
-73 97 77 0
-73 49 77 0
-74 98 50 0
-74 98 78 0
-74 50 78 0
-75 99 51 0
-75 99 79 0
-75 51 79 0
-76 100 52 0
-76 100 80 0
-76 52 80 0
-73 -97 -49 -77 0
-74 -98 -50 -78 0
-75 -99 -51 -79 0
-76 -100 -52 -80 0
-77 -78 0
-77 -79 0
-77 -80 0
-78 -79 0
-78 -80 0
-79 -80 0
-77 101 53 81 0
-77 101 53 73 0
-77 101 81 73 0
-77 53 81 73 0
-78 102 54 82 0
-78 102 54 74 0
-78 102 82 74 0
-78 54 82 74 0
-79 103 55 83 0
-79 103 55 75 0
-79 103 83 75 0
-79 55 83 75 0
-80 104 56 84 0
-80 104 56 76 0
-80 104 84 76 0
-80 56 84 76 0
-77 -101 -53 -81 0
-77 -101 -53 -73 0
-77 -101 -81 -73 0
-77 -53 -81 -73 0
-78 -102 -54 -82 0
-78 -102 -54 -74 0
-78 -102 -82 -74 0
-78 -54 -82 -74 0
-79 -103 -55 -83 0
-79 -103 -55 -75 0
-79 -103 -83 -75 0
-79 -55 -83 -75 0
-80 -104 -56 -84 0
-80 -104 -56 -76 0
-80 -104 -84 -76 0
-80 -56 -84 -76 0
81 0
-82 0
-83 0
-84 0
105 57 85 77 0
-105 -57 0
-105 -85 0
-105 -77 0
-57 -85 0
-57 -77 0
-85 -77 0
-85 -86 0
-85 -87 0
-85 -88 0
-86 -87 0
-86 -88 0
-87 -88 0
-85 109 61 89 0
-85 109 61 81 0
-85 109 89 81 0
-85 61 89 81 0
-86 110 62 90 0
-86 110 62 82 0
-86 110 90 82 0
-86 62 90 82 0
-87 111 63 91 0
-87 111 63 83 0
-87 111 91 83 0
-87 63 91 83 0
-88 112 64 92 0
-88 112 64 84 0
-88 112 92 84 0
-88 64 92 84 0
-85 -109 -61 -89 0
-85 -109 -61 -81 0
-85 -109 -89 -81 0
-85 -61 -89 -81 0
-86 -110 -62 -90 0
-86 -110 -62 -82 0
-86 -110 -90 -82 0
-86 -62 -90 -82 0
-87 -111 -63 -91 0
-87 -111 -63 -83 0
-87 -111 -91 -83 0
-87 -63 -91 -83 0
-88 -112 -64 -92 0
-88 -112 -64 -84 0
-88 -112 -92 -84 0
-88 -64 -92 -84 0
-89 -90 0
-89 -91 0
-89 -92 0
-90 -91 0
-90 -92 0
-91 -92 0
-89 113 65 93 0
-89 113 65 85 0
-89 113 93 85 0
-89 65 93 85 0
-90 114 66 94 0
-90 114 66 86 0
-90 114 94 86 0
-90 66 94 86 0
-91 115 67 95 0
-91 115 67 87 0
-91 115 95 87 0
-91 67 95 87 0
-92 116 68 96 0
-92 116 68 88 0
-92 116 96 88 0
-92 68 96 88 0
-89 -113 -65 -93 0
-89 -113 -65 -85 0
-89 -113 -93 -85 0
-89 -65 -93 -85 0
-90 -114 -66 -94 0
-90 -114 -66 -86 0
-90 -114 -94 -86 0
-90 -66 -94 -86 0
-91 -115 -67 -95 0
-91 -115 -67 -87 0
-91 -115 -95 -87 0
-91 -67 -95 -87 0
-92 -116 -68 -96 0
-92 -116 -68 -88 0
-92 -116 -96 -88 0
-92 -68 -96 -88 0
-93 -94 0
-93 -95 0
-93 -96 0
-94 -95 0
-94 -96 0
-95 -96 0
-93 117 69 0
-93 117 89 0
-93 69 89 0
-94 118 70 0
-94 118 90 0
-94 70 90 0
-95 119 71 0
-95 119 91 0
-95 71 91 0
-96 120 72 0
-96 120 92 0
-96 72 92 0
-93 -117 -69 -89 0
-94 -118 -70 -90 0
-95 -119 -71 -91 0
-96 -120 -72 -92 0
-97 -98 0
-97 -99 0
-97 -100 0
-98 -99 0
-98 -100 0
-99 -100 0
-97 121 73 0
-97 121 101 0
-97 73 101 0
-98 122 74 0
-98 122 102 0
-98 74 102 0
-99 123 75 0
-99 123 103 0
-99 75 103 0
-100 124 76 0
-100 124 104 0
-100 76 104 0
-97 -121 -73 -101 0
-98 -122 -74 -102 0
-99 -123 -75 -103 0
-100 -124 -76 -104 0
-101 -102 0
-101 -103 0
-101 -104 0
-102 -103 0
-102 -104 0
-103 -104 0
-101 125 77 105 0
-101 125 77 97 0
-101 125 105 97 0
-101 77 105 97 0
-102 126 78 106 0
-102 126 78 98 0
-102 126 106 98 0
-102 78 106 98 0
-103 127 79 107 0
-103 127 79 99 0
-103 127 107 99 0
-103 79 107 99 0
-104 128 80 108 0
-104 128 80 100 0
-104 128 108 100 0
-104 80 108 100 0
-101 -125 -77 -105 0
-101 -125 -77 -97 0
-101 -125 -105 -97 0
-101 -77 -105 -97 0
-102 -126 -78 -106 0
-102 -126 -78 -98 0
-102 -126 -106 -98 0
-102 -78 -106 -98 0
-103 -127 -79 -107 0
-103 -127 -79 -99 0
-103 -127 -107 -99 0
-103 -79 -107 -99 0
-104 -128 -80 -108 0
-104 -128 -80 -100 0
-104 -128 -108 -100 0
-104 -80 -108 -100 0
106 0
-105 0
-107 0
-108 0
130 82 110 102 0
-130 -82 0
-130 -110 0
-130 -102 0
-82 -110 0
-82 -102 0
-110 -102 0
-109 -110 0
-109 -111 0
-109 -112 0
-110 -111 0
-110 -112 0
-111 -112 0
-109 133 85 113 0
-109 133 85 105 0
-109 133 113 105 0
-109 85 113 105 0
-110 134 86 114 0
-110 134 86 106 0
-110 134 114 106 0
-110 86 114 106 0
-111 135 87 115 0
-111 135 87 107 0
-111 135 115 107 0
-111 87 115 107 0
-112 136 88 116 0
-112 136 88 108 0
-112 136 116 108 0
-112 88 116 108 0
-109 -133 -85 -113 0
-109 -133 -85 -105 0
-109 -133 -113 -105 0
-109 -85 -113 -105 0
-110 -134 -86 -114 0
-110 -134 -86 -106 0
-110 -134 -114 -106 0
-110 -86 -114 -106 0
-111 -135 -87 -115 0
-111 -135 -87 -107 0
-111 -135 -115 -107 0
-111 -87 -115 -107 0
-112 -136 -88 -116 0
-112 -136 -88 -108 0
-112 -136 -116 -108 0
-112 -88 -116 -108 0
-113 -114 0
-113 -115 0
-113 -116 0
-114 -115 0
-114 -116 0
-115 -116 0
-113 137 89 117 0
-113 137 89 109 0
-113 137 117 109 0
-113 89 117 109 0
-114 138 90 118 0
-114 138 90 110 0
-114 138 118 110 0
-114 90 118 110 0
-115 139 91 119 0
-115 139 91 111 0
-115 139 119 111 0
-115 91 119 111 0
-116 140 92 120 0
-116 140 92 112 0
-116 140 120 112 0
-116 92 120 112 0
-113 -137 -89 -117 0
-113 -137 -89 -109 0
-113 -137 -117 -109 0
-113 -89 -117 -109 0
-114 -138 -90 -118 0
-114 -138 -90 -110 0
-114 -138 -118 -110 0
-114 -90 -118 -110 0
-115 -139 -91 -119 0
-115 -139 -91 -111 0
-115 -139 -119 -111 0
-115 -91 -119 -111 0
-116 -140 -92 -120 0
-116 -140 -92 -112 0
-116 -140 -120 -112 0
-116 -92 -120 -112 0
-117 -118 0
-117 -119 0
-117 -120 0
-118 -119 0
-118 -120 0
-119 -120 0
-117 141 93 0
-117 141 113 0
-117 93 113 0
-118 142 94 0
-118 142 114 0
-118 94 114 0
-119 143 95 0
-119 143 115 0
-119 95 115 0
-120 144 96 0
-120 144 116 0
-120 96 116 0
-117 -141 -93 -113 0
-118 -142 -94 -114 0
-119 -143 -95 -115 0
-120 -144 -96 -116 0
122 0
-121 0
-123 0
-124 0
98 126 0
-98 -126 0
127 0
-125 0
-126 0
-128 0
123 103 131 0
-123 -103 0
-123 -131 0
-103 -131 0
-129 -130 0
-129 -131 0
-129 -132 0
-130 -131 0
-130 -132 0
-131 -132 0
-129 125 105 0
-129 105 133 0
-129 125 133 0
-130 126 106 0
-130 106 134 0
-130 126 134 0
-131 127 107 0
-131 107 135 0
-131 127 135 0
-132 128 108 0
-132 108 136 0
-132 128 136 0
-129 -105 -125 -133 0
-130 -106 -126 -134 0
-131 -107 -127 -135 0
-132 -108 -128 -136 0
-133 -134 0
-133 -135 0
-133 -136 0
-134 -135 0
-134 -136 0
-135 -136 0
-133 129 109 0
-133 109 137 0
-133 129 137 0
-134 130 110 0
-134 110 138 0
-134 130 138 0
-135 131 111 0
-135 111 139 0
-135 131 139 0
-136 132 112 0
-136 112 140 0
-136 132 140 0
-133 -109 -129 -137 0
-134 -110 -130 -138 0
-135 -111 -131 -139 0
-136 -112 -132 -140 0
140 0
-137 0
-138 0
-139 0
136 116 144 0
-136 -116 0
-136 -144 0
-116 -144 0
143 0
-141 0
-142 0
-144 0
119 139 0
-119 -139 0
25 29 37 41 45 0
49 53 57 61 65 69 0
5 29 53 77 101 0
6 30 54 78 102 0
11 59 131 0
15 39 63 87 111 135 0
19 43 67 91 115 0
52 56 60 64 68 72 0
76 80 88 92 96 0
100 104 112 116 120 0
16 40 64 88 112 136 0